p cnf 121 115
-1 28 29 -2 111 0 
-3 -4 45 54 99 -2 -5 -6 111 0 
-7 111 0 
-8 75 -9 12 21 25 36 46 78 92 109 -10 31 112 0 
-10 31 -9 12 21 25 36 46 78 92 109 -8 75 113 0 
-11 81 85 93 -10 31 113 0 
-12 9 21 25 36 46 78 92 109 114 0 
-13 23 65 108 110 111 0 
-14 111 0 
-8 75 -15 26 34 94 96 111 0 
-16 97 115 0 
-17 18 20 32 66 89 111 0 
-13 23 65 108 110 -18 17 20 32 66 89 -19 22 30 40 72 76 87 111 0 
-20 17 18 32 66 89 -21 9 12 25 36 46 78 92 109 -22 19 30 40 72 76 87 111 0 
-23 13 65 108 110 111 0 
-24 -25 9 12 21 36 46 78 92 109 111 0 
-26 15 34 94 96 116 0 
-27 117 0 
-28 1 29 111 0 
-29 1 28 111 0 
-13 23 65 108 110 -30 19 22 40 72 76 87 -31 10 -32 17 18 20 66 89 111 0 
-33 118 0 
-34 15 26 94 96 -20 17 18 32 66 89 111 0 
-35 -18 17 20 32 66 89 111 0 
-36 9 12 21 25 46 78 92 109 111 0 
-13 23 65 108 110 -30 19 22 40 72 76 87 -32 17 18 20 66 89 111 0 
-37 -12 9 21 25 36 46 78 92 109 111 0 
-38 -12 9 21 25 36 46 78 92 109 111 0 
-39 -40 19 22 30 72 76 87 111 0 
-30 19 22 40 72 76 87 -21 9 12 25 36 46 78 92 109 -32 17 18 20 66 89 111 0 
-37 -41 111 0 
-42 -43 111 0 
-44 -45 4 54 99 116 0 
-44 117 0 
-46 9 12 21 25 36 78 92 109 111 0 
-47 -4 45 54 99 -48 111 0 
-47 -43 -2 111 0 
-47 -6 111 0 
-49 -50 111 0 
-51 -50 111 0 
-1 28 29 111 0 
-52 111 0 
-3 -4 45 54 99 -2 -6 111 0 
-53 -54 4 45 99 -2 -6 111 0 
-55 -56 107 -57 111 0 
-58 -56 107 -57 111 0 
-59 -56 107 -57 111 0 
-60 -22 19 30 40 72 76 87 111 0 
-61 112 0 
-62 -5 -6 116 0 
-63 -62 -5 -6 116 0 
-34 15 26 94 96 111 0 
-64 111 0 
-65 13 23 108 110 111 0 
-66 17 18 20 32 89 111 0 
-67 88 -64 111 0 
-60 -4 45 54 99 111 0 
-68 111 0 
-61 111 0 
-69 111 0 
-31 10 -36 9 12 21 25 46 78 92 109 111 0 
-67 88 -65 13 23 108 110 -36 9 12 21 25 46 78 92 109 111 0 
-47 -2 -6 111 0 
-70 73 111 0 
-71 79 111 0 
-72 19 22 30 40 76 87 111 0 
-73 70 111 0 
-74 -43 111 0 
-75 8 -76 19 22 30 40 72 87 -43 111 0 
-75 8 -76 19 22 30 40 72 87 -4 45 54 99 -43 111 0 
-1 28 29 114 0 
-77 111 0 
-78 9 12 21 25 36 46 92 109 119 0 
-79 71 -80 111 0 
-78 9 12 21 25 36 46 92 109 111 0 
-75 8 -32 17 18 20 66 89 111 0 
-35 -32 17 18 20 66 89 111 0 
-81 11 85 93 -82 -56 107 111 0 
-83 114 0 
-84 111 0 
-21 9 12 25 36 46 78 92 109 -85 11 81 93 114 0 
-86 -21 9 12 25 36 46 78 92 109 111 0 
-87 19 22 30 40 72 76 -88 67 -89 17 18 20 32 66 120 0 
-90 -10 31 113 0 
-90 112 0 
-91 -10 31 112 0 
-92 9 12 21 25 36 46 78 109 -93 11 81 85 120 0 
-90 113 0 
-75 8 -87 19 22 30 40 72 76 -31 10 -89 17 18 20 32 66 120 0 
-94 15 26 34 96 111 0 
-95 -56 107 111 0 
-75 8 -96 15 26 34 94 111 0 
-31 10 -96 15 26 34 94 111 0 
-30 19 22 40 72 76 87 -75 8 -32 17 18 20 66 89 111 0 
-97 16 115 0 
-98 118 0 
-22 19 30 40 72 76 87 -99 4 45 54 -2 111 0 
-5 117 0 
-100 -5 117 0 
-20 17 18 32 66 89 -101 111 0 
-102 -47 111 0 
-103 111 0 
-76 19 22 30 40 72 87 -85 11 81 93 -54 4 45 99 121 0 
-47 -4 45 54 99 -43 -2 111 0 
-34 15 26 94 96 -30 19 22 40 72 76 87 111 0 
-104 -86 -15 26 34 94 96 -105 111 0 
-1 28 29 -43 111 0 
-106 -43 111 0 
-52 111 0 
-30 19 22 40 72 76 87 -32 17 18 20 66 89 111 0 
-107 56 -108 13 23 65 110 116 0 
-109 9 12 21 25 36 46 78 92 111 0 
-104 -35 -18 17 20 32 66 89 111 0 
-110 13 23 65 108 111 0 
-75 8 -65 13 23 108 110 -36 9 12 21 25 46 78 92 109 111 0 
